SECTION Graph
Nodes 1005
Edges 1731
E 1 2 5
E 2 3 5
E 3 4 5
E 4 5 5
E 5 6 5
E 6 7 5
E 7 8 5
E 8 9 5
E 9 10 5
E 10 11 5
E 11 12 5
E 12 13 5
E 13 14 5
E 14 15 5
E 15 16 5
E 16 17 5
E 17 18 5
E 18 19 5
E 19 20 5
E 20 21 5
E 21 22 5
E 22 23 5
E 23 24 5
E 24 25 5
E 26 27 5
E 27 28 5
E 28 29 5
E 29 30 5
E 30 31 5
E 31 32 5
E 32 33 5
E 33 34 5
E 34 35 5
E 35 36 5
E 36 37 5
E 37 38 5
E 38 39 5
E 42 43 5
E 43 44 5
E 44 45 5
E 45 46 5
E 48 49 5
E 49 50 5
E 51 52 5
E 52 53 5
E 53 54 5
E 54 55 5
E 55 56 5
E 56 57 5
E 57 58 5
E 58 59 5
E 59 60 5
E 60 61 5
E 61 62 5
E 62 63 5
E 63 64 5
E 64 65 5
E 65 66 5
E 66 67 5
E 67 68 5
E 68 69 5
E 69 70 5
E 70 71 5
E 71 72 5
E 1 73 13
E 2 74 13
E 3 75 13
E 4 76 13
E 5 77 13
E 6 78 13
E 7 79 13
E 8 80 13
E 9 81 13
E 10 82 13
E 12 83 13
E 13 84 13
E 14 85 13
E 15 86 13
E 16 87 13
E 17 88 13
E 18 89 13
E 19 90 13
E 20 91 13
E 21 92 13
E 22 93 13
E 23 94 13
E 24 95 13
E 25 96 13
E 26 98 13
E 27 99 13
E 28 100 13
E 29 101 13
E 30 102 13
E 31 103 13
E 32 104 13
E 33 105 13
E 34 106 13
E 35 107 13
E 37 108 13
E 38 109 13
E 39 110 13
E 40 112 13
E 41 113 13
E 42 115 13
E 44 116 13
E 46 117 13
E 47 118 13
E 48 119 13
E 49 120 13
E 50 121 13
E 51 122 13
E 52 123 13
E 53 124 13
E 54 125 13
E 55 126 13
E 56 127 13
E 57 128 13
E 58 129 13
E 59 130 13
E 60 131 13
E 61 132 13
E 62 133 13
E 63 134 13
E 64 135 13
E 66 136 13
E 68 137 13
E 70 138 13
E 72 140 13
E 73 74 5
E 74 75 5
E 75 76 5
E 76 77 5
E 77 78 5
E 78 79 5
E 79 80 5
E 80 81 5
E 81 82 5
E 83 84 5
E 84 85 5
E 85 86 5
E 86 87 5
E 87 88 5
E 88 89 5
E 89 90 5
E 90 91 5
E 91 92 5
E 92 93 5
E 93 94 5
E 94 95 5
E 95 96 5
E 96 97 5
E 97 98 5
E 98 99 5
E 99 100 5
E 100 101 5
E 101 102 5
E 102 103 5
E 103 104 5
E 104 105 5
E 105 106 5
E 106 107 5
E 108 109 5
E 109 110 5
E 110 111 5
E 111 112 5
E 113 114 5
E 114 115 5
E 119 120 5
E 120 121 5
E 122 123 5
E 123 124 5
E 124 125 5
E 125 126 5
E 126 127 5
E 127 128 5
E 128 129 5
E 129 130 5
E 130 131 5
E 131 132 5
E 132 133 5
E 133 134 5
E 134 135 5
E 138 139 5
E 139 140 5
E 73 141 13
E 74 142 13
E 75 143 13
E 76 144 13
E 77 145 13
E 78 146 13
E 79 147 13
E 80 148 13
E 81 149 13
E 82 150 13
E 83 151 13
E 84 152 13
E 85 153 13
E 86 154 13
E 87 155 13
E 88 156 13
E 89 157 13
E 91 159 13
E 92 160 13
E 93 161 13
E 94 162 13
E 96 164 13
E 97 165 13
E 98 166 13
E 99 167 13
E 100 168 13
E 101 169 13
E 103 171 13
E 104 172 13
E 105 173 13
E 106 174 13
E 107 175 13
E 108 176 13
E 109 177 13
E 110 178 13
E 111 179 13
E 112 180 13
E 113 182 13
E 114 183 13
E 115 184 13
E 116 185 13
E 117 186 13
E 118 188 13
E 119 190 13
E 120 191 13
E 121 192 13
E 122 194 13
E 123 195 13
E 124 196 13
E 125 197 13
E 126 198 13
E 127 199 13
E 128 200 13
E 129 201 13
E 130 202 13
E 131 203 13
E 132 204 13
E 133 205 13
E 134 206 13
E 135 207 13
E 136 208 13
E 137 209 13
E 138 210 13
E 139 211 13
E 140 212 13
E 141 142 5
E 142 143 5
E 143 144 5
E 144 145 5
E 145 146 5
E 146 147 5
E 147 148 5
E 148 149 5
E 149 150 5
E 151 152 5
E 152 153 5
E 153 154 5
E 154 155 5
E 155 156 5
E 156 157 5
E 157 158 5
E 158 159 5
E 159 160 5
E 160 161 5
E 161 162 5
E 162 163 5
E 163 164 5
E 164 165 5
E 165 166 5
E 166 167 5
E 167 168 5
E 168 169 5
E 169 170 5
E 170 171 5
E 171 172 5
E 172 173 5
E 173 174 5
E 174 175 5
E 176 177 5
E 177 178 5
E 178 179 5
E 179 180 5
E 180 181 5
E 181 182 5
E 182 183 5
E 183 184 5
E 186 187 5
E 187 188 5
E 188 189 5
E 189 190 5
E 190 191 5
E 191 192 5
E 192 193 5
E 193 194 5
E 194 195 5
E 195 196 5
E 196 197 5
E 197 198 5
E 198 199 5
E 199 200 5
E 200 201 5
E 201 202 5
E 202 203 5
E 203 204 5
E 204 205 5
E 205 206 5
E 206 207 5
E 210 211 5
E 211 212 5
E 141 213 13
E 142 214 13
E 143 215 13
E 144 216 13
E 145 217 13
E 146 218 13
E 147 219 13
E 148 220 13
E 149 221 13
E 150 222 13
E 151 224 13
E 152 225 13
E 153 226 13
E 154 227 13
E 155 228 13
E 156 229 13
E 157 230 13
E 158 231 13
E 159 232 13
E 160 233 13
E 161 234 13
E 162 235 13
E 164 236 13
E 165 237 13
E 166 238 13
E 167 239 13
E 168 240 13
E 169 241 13
E 170 242 13
E 171 243 13
E 172 244 13
E 173 245 13
E 174 246 13
E 175 247 13
E 176 249 13
E 178 250 13
E 180 251 13
E 181 252 13
E 182 253 13
E 183 254 13
E 184 255 13
E 185 257 13
E 186 259 13
E 187 260 13
E 188 261 13
E 189 262 13
E 190 263 13
E 191 264 13
E 192 265 13
E 193 266 13
E 194 267 13
E 195 268 13
E 196 269 13
E 197 270 13
E 199 272 13
E 200 273 13
E 201 274 13
E 202 275 13
E 203 276 13
E 204 277 13
E 205 278 13
E 206 279 13
E 207 280 13
E 208 282 13
E 209 284 13
E 210 286 13
E 211 287 13
E 213 214 5
E 214 215 5
E 215 216 5
E 216 217 5
E 217 218 5
E 218 219 5
E 219 220 5
E 220 221 5
E 221 222 5
E 222 223 5
E 223 224 5
E 224 225 5
E 225 226 5
E 226 227 5
E 227 228 5
E 228 229 5
E 229 230 5
E 230 231 5
E 231 232 5
E 232 233 5
E 233 234 5
E 234 235 5
E 236 237 5
E 237 238 5
E 238 239 5
E 239 240 5
E 240 241 5
E 241 242 5
E 242 243 5
E 243 244 5
E 244 245 5
E 245 246 5
E 246 247 5
E 247 248 5
E 248 249 5
E 251 252 5
E 252 253 5
E 253 254 5
E 254 255 5
E 255 256 5
E 256 257 5
E 257 258 5
E 258 259 5
E 259 260 5
E 260 261 5
E 261 262 5
E 262 263 5
E 263 264 5
E 264 265 5
E 265 266 5
E 266 267 5
E 267 268 5
E 268 269 5
E 269 270 5
E 270 271 5
E 271 272 5
E 272 273 5
E 273 274 5
E 274 275 5
E 275 276 5
E 276 277 5
E 277 278 5
E 278 279 5
E 279 280 5
E 280 281 5
E 281 282 5
E 282 283 5
E 283 284 5
E 284 285 5
E 285 286 5
E 286 287 5
E 287 288 5
E 213 289 13
E 214 290 13
E 215 291 13
E 217 293 13
E 218 294 13
E 219 295 13
E 220 296 13
E 221 297 13
E 222 298 13
E 223 299 13
E 224 300 13
E 226 302 13
E 227 303 13
E 228 304 13
E 229 305 13
E 230 306 13
E 231 307 13
E 232 308 13
E 233 309 13
E 234 310 13
E 235 311 13
E 236 312 13
E 237 313 13
E 238 314 13
E 239 315 13
E 240 316 13
E 241 317 13
E 242 318 13
E 243 319 13
E 244 320 13
E 245 321 13
E 246 322 13
E 247 323 13
E 248 324 13
E 249 325 13
E 250 326 13
E 251 327 13
E 252 328 13
E 253 329 13
E 254 330 13
E 255 331 13
E 256 332 13
E 257 333 13
E 258 334 13
E 259 335 13
E 261 336 13
E 262 337 13
E 263 338 13
E 264 339 13
E 265 340 13
E 266 341 13
E 267 342 13
E 268 343 13
E 269 344 13
E 270 345 13
E 271 346 13
E 272 347 13
E 274 348 13
E 277 351 13
E 278 352 13
E 279 353 13
E 280 354 13
E 281 355 13
E 282 356 13
E 283 357 13
E 284 358 13
E 285 359 13
E 286 360 13
E 287 361 13
E 288 362 13
E 289 290 5
E 290 291 5
E 291 292 5
E 292 293 5
E 293 294 5
E 294 295 5
E 295 296 5
E 296 297 5
E 297 298 5
E 298 299 5
E 299 300 5
E 300 301 5
E 301 302 5
E 302 303 5
E 303 304 5
E 304 305 5
E 305 306 5
E 306 307 5
E 307 308 5
E 308 309 5
E 309 310 5
E 310 311 5
E 312 313 5
E 313 314 5
E 314 315 5
E 315 316 5
E 316 317 5
E 317 318 5
E 318 319 5
E 319 320 5
E 320 321 5
E 321 322 5
E 322 323 5
E 323 324 5
E 324 325 5
E 327 328 5
E 328 329 5
E 329 330 5
E 330 331 5
E 331 332 5
E 332 333 5
E 333 334 5
E 334 335 5
E 336 337 5
E 337 338 5
E 338 339 5
E 339 340 5
E 340 341 5
E 341 342 5
E 342 343 5
E 343 344 5
E 344 345 5
E 345 346 5
E 346 347 5
E 348 349 5
E 349 350 5
E 350 351 5
E 351 352 5
E 352 353 5
E 353 354 5
E 354 355 5
E 355 356 5
E 356 357 5
E 357 358 5
E 358 359 5
E 359 360 5
E 360 361 5
E 361 362 5
E 289 363 13
E 290 364 13
E 291 365 13
E 292 366 13
E 293 367 13
E 294 368 13
E 296 369 13
E 297 370 13
E 298 371 13
E 300 372 13
E 301 373 13
E 302 374 13
E 304 375 13
E 305 376 13
E 306 377 13
E 307 378 13
E 308 379 13
E 309 380 13
E 310 381 13
E 311 382 13
E 312 384 13
E 313 385 13
E 314 386 13
E 316 387 13
E 317 388 13
E 318 389 13
E 319 390 13
E 320 391 13
E 321 392 13
E 322 393 13
E 323 394 13
E 324 395 13
E 325 396 13
E 326 398 13
E 327 400 13
E 328 401 13
E 329 402 13
E 330 403 13
E 331 404 13
E 332 405 13
E 333 406 13
E 334 407 13
E 335 408 13
E 336 409 13
E 337 410 13
E 338 411 13
E 339 412 13
E 340 413 13
E 341 414 13
E 342 415 13
E 343 416 13
E 344 417 13
E 345 418 13
E 346 419 13
E 347 420 13
E 348 421 13
E 349 422 13
E 350 423 13
E 351 424 13
E 352 425 13
E 353 426 13
E 354 427 13
E 355 428 13
E 356 429 13
E 357 430 13
E 358 431 13
E 359 432 13
E 360 433 13
E 361 434 13
E 362 435 13
E 363 364 5
E 364 365 5
E 365 366 5
E 366 367 5
E 367 368 5
E 369 370 5
E 370 371 5
E 372 373 5
E 373 374 5
E 375 376 5
E 376 377 5
E 377 378 5
E 378 379 5
E 379 380 5
E 380 381 5
E 381 382 5
E 382 383 5
E 383 384 5
E 384 385 5
E 385 386 5
E 387 388 5
E 388 389 5
E 389 390 5
E 390 391 5
E 391 392 5
E 392 393 5
E 393 394 5
E 394 395 5
E 395 396 5
E 396 397 5
E 397 398 5
E 398 399 5
E 399 400 5
E 400 401 5
E 401 402 5
E 402 403 5
E 403 404 5
E 404 405 5
E 405 406 5
E 406 407 5
E 407 408 5
E 409 410 5
E 410 411 5
E 411 412 5
E 412 413 5
E 413 414 5
E 414 415 5
E 415 416 5
E 416 417 5
E 417 418 5
E 418 419 5
E 419 420 5
E 421 422 5
E 422 423 5
E 423 424 5
E 424 425 5
E 425 426 5
E 426 427 5
E 427 428 5
E 428 429 5
E 429 430 5
E 430 431 5
E 431 432 5
E 432 433 5
E 433 434 5
E 434 435 5
E 363 436 13
E 366 439 13
E 368 441 13
E 369 442 13
E 370 443 13
E 371 444 13
E 372 445 13
E 374 446 13
E 375 447 13
E 376 448 13
E 377 449 13
E 378 450 13
E 379 451 13
E 380 452 13
E 381 453 13
E 382 454 13
E 383 455 13
E 384 456 13
E 386 457 13
E 387 458 13
E 389 459 13
E 390 460 13
E 391 461 13
E 392 462 13
E 393 463 13
E 394 464 13
E 395 465 13
E 396 466 13
E 397 467 13
E 398 468 13
E 399 469 13
E 400 470 13
E 401 471 13
E 402 472 13
E 403 473 13
E 404 474 13
E 405 475 13
E 406 476 13
E 407 477 13
E 408 478 13
E 409 480 13
E 410 481 13
E 411 482 13
E 412 483 13
E 413 484 13
E 415 486 13
E 416 487 13
E 417 488 13
E 418 489 13
E 420 490 13
E 421 492 13
E 423 494 13
E 424 495 13
E 425 496 13
E 426 497 13
E 427 498 13
E 428 499 13
E 429 500 13
E 430 501 13
E 431 502 13
E 432 503 13
E 433 504 13
E 434 505 13
E 435 506 13
E 436 437 5
E 437 438 5
E 438 439 5
E 439 440 5
E 440 441 5
E 442 443 5
E 443 444 5
E 447 448 5
E 448 449 5
E 449 450 5
E 450 451 5
E 451 452 5
E 452 453 5
E 453 454 5
E 454 455 5
E 455 456 5
E 459 460 5
E 460 461 5
E 461 462 5
E 462 463 5
E 463 464 5
E 464 465 5
E 465 466 5
E 466 467 5
E 467 468 5
E 468 469 5
E 469 470 5
E 470 471 5
E 471 472 5
E 472 473 5
E 473 474 5
E 474 475 5
E 475 476 5
E 476 477 5
E 477 478 5
E 478 479 5
E 479 480 5
E 480 481 5
E 481 482 5
E 482 483 5
E 483 484 5
E 484 485 5
E 485 486 5
E 486 487 5
E 487 488 5
E 488 489 5
E 490 491 5
E 491 492 5
E 492 493 5
E 493 494 5
E 494 495 5
E 495 496 5
E 496 497 5
E 497 498 5
E 498 499 5
E 499 500 5
E 500 501 5
E 501 502 5
E 502 503 5
E 503 504 5
E 504 505 5
E 505 506 5
E 436 507 13
E 437 508 13
E 439 510 13
E 440 511 13
E 441 512 13
E 442 514 13
E 443 515 13
E 444 516 13
E 445 518 13
E 446 519 13
E 447 521 13
E 448 522 13
E 449 523 13
E 450 524 13
E 451 525 13
E 452 526 13
E 453 527 13
E 456 530 13
E 457 531 13
E 458 533 13
E 459 534 13
E 460 535 13
E 461 536 13
E 463 538 13
E 464 539 13
E 465 540 13
E 466 541 13
E 467 542 13
E 468 543 13
E 469 544 13
E 470 545 13
E 471 546 13
E 472 547 13
E 474 548 13
E 476 550 13
E 477 551 13
E 478 552 13
E 479 553 13
E 480 554 13
E 481 555 13
E 482 556 13
E 483 557 13
E 484 558 13
E 485 559 13
E 486 560 13
E 487 561 13
E 488 562 13
E 489 563 13
E 490 564 13
E 491 565 13
E 492 566 13
E 493 567 13
E 494 568 13
E 495 569 13
E 496 570 13
E 497 571 13
E 498 572 13
E 499 573 13
E 500 574 13
E 501 575 13
E 502 576 13
E 505 579 13
E 506 580 13
E 507 508 5
E 508 509 5
E 509 510 5
E 510 511 5
E 511 512 5
E 512 513 5
E 513 514 5
E 514 515 5
E 515 516 5
E 516 517 5
E 517 518 5
E 519 520 5
E 520 521 5
E 521 522 5
E 522 523 5
E 523 524 5
E 524 525 5
E 525 526 5
E 526 527 5
E 527 528 5
E 528 529 5
E 529 530 5
E 531 532 5
E 532 533 5
E 534 535 5
E 535 536 5
E 536 537 5
E 537 538 5
E 538 539 5
E 539 540 5
E 540 541 5
E 541 542 5
E 542 543 5
E 543 544 5
E 544 545 5
E 545 546 5
E 546 547 5
E 548 549 5
E 549 550 5
E 550 551 5
E 551 552 5
E 552 553 5
E 553 554 5
E 554 555 5
E 555 556 5
E 556 557 5
E 557 558 5
E 558 559 5
E 559 560 5
E 560 561 5
E 561 562 5
E 562 563 5
E 564 565 5
E 565 566 5
E 566 567 5
E 567 568 5
E 568 569 5
E 569 570 5
E 570 571 5
E 571 572 5
E 572 573 5
E 573 574 5
E 574 575 5
E 575 576 5
E 576 577 5
E 577 578 5
E 578 579 5
E 579 580 5
E 507 581 13
E 509 582 13
E 510 583 13
E 511 584 13
E 512 585 13
E 513 586 13
E 514 587 13
E 516 588 13
E 517 589 13
E 518 590 13
E 519 592 13
E 520 593 13
E 521 594 13
E 522 595 13
E 523 596 13
E 524 597 13
E 525 598 13
E 526 599 13
E 527 600 13
E 528 601 13
E 530 602 13
E 531 604 13
E 532 605 13
E 533 606 13
E 534 608 13
E 535 609 13
E 536 610 13
E 537 611 13
E 538 612 13
E 539 613 13
E 540 614 13
E 542 615 13
E 543 616 13
E 544 617 13
E 545 618 13
E 546 619 13
E 547 620 13
E 548 621 13
E 549 622 13
E 550 623 13
E 552 625 13
E 554 626 13
E 556 627 13
E 557 628 13
E 558 629 13
E 559 630 13
E 560 631 13
E 562 632 13
E 563 633 13
E 564 635 13
E 567 638 13
E 568 639 13
E 569 640 13
E 570 641 13
E 571 642 13
E 572 643 13
E 573 644 13
E 574 645 13
E 575 646 13
E 576 647 13
E 577 648 13
E 578 649 13
E 579 650 13
E 580 651 13
E 582 583 5
E 583 584 5
E 584 585 5
E 585 586 5
E 586 587 5
E 588 589 5
E 589 590 5
E 590 591 5
E 591 592 5
E 592 593 5
E 593 594 5
E 594 595 5
E 595 596 5
E 596 597 5
E 597 598 5
E 598 599 5
E 599 600 5
E 600 601 5
E 602 603 5
E 603 604 5
E 604 605 5
E 605 606 5
E 606 607 5
E 607 608 5
E 608 609 5
E 609 610 5
E 610 611 5
E 611 612 5
E 612 613 5
E 613 614 5
E 615 616 5
E 616 617 5
E 617 618 5
E 618 619 5
E 619 620 5
E 621 622 5
E 622 623 5
E 623 624 5
E 624 625 5
E 627 628 5
E 628 629 5
E 629 630 5
E 630 631 5
E 632 633 5
E 633 634 5
E 634 635 5
E 635 636 5
E 636 637 5
E 637 638 5
E 638 639 5
E 639 640 5
E 640 641 5
E 641 642 5
E 642 643 5
E 643 644 5
E 644 645 5
E 645 646 5
E 646 647 5
E 647 648 5
E 648 649 5
E 649 650 5
E 650 651 5
E 581 652 13
E 582 653 13
E 583 654 13
E 584 655 13
E 585 656 13
E 586 657 13
E 587 658 13
E 588 659 13
E 590 660 13
E 591 661 13
E 592 662 13
E 593 663 13
E 594 664 13
E 596 665 13
E 597 666 13
E 598 667 13
E 599 668 13
E 600 669 13
E 601 670 13
E 602 671 13
E 603 672 13
E 604 673 13
E 606 675 13
E 607 676 13
E 608 677 13
E 610 678 13
E 612 679 13
E 613 680 13
E 614 681 13
E 615 682 13
E 616 683 13
E 618 685 13
E 619 686 13
E 620 687 13
E 621 689 13
E 622 690 13
E 623 691 13
E 624 692 13
E 625 693 13
E 626 694 13
E 627 695 13
E 628 696 13
E 629 697 13
E 630 698 13
E 631 699 13
E 632 700 13
E 633 701 13
E 634 702 13
E 635 703 13
E 637 705 13
E 638 706 13
E 639 707 13
E 640 708 13
E 641 709 13
E 642 710 13
E 643 711 13
E 644 712 13
E 646 713 13
E 648 714 13
E 649 715 13
E 650 716 13
E 651 717 13
E 653 654 5
E 654 655 5
E 655 656 5
E 656 657 5
E 657 658 5
E 660 661 5
E 661 662 5
E 662 663 5
E 663 664 5
E 665 666 5
E 666 667 5
E 667 668 5
E 668 669 5
E 669 670 5
E 671 672 5
E 672 673 5
E 673 674 5
E 674 675 5
E 675 676 5
E 676 677 5
E 679 680 5
E 680 681 5
E 682 683 5
E 683 684 5
E 684 685 5
E 685 686 5
E 686 687 5
E 687 688 5
E 688 689 5
E 689 690 5
E 690 691 5
E 691 692 5
E 692 693 5
E 695 696 5
E 696 697 5
E 697 698 5
E 698 699 5
E 700 701 5
E 701 702 5
E 702 703 5
E 703 704 5
E 704 705 5
E 705 706 5
E 706 707 5
E 707 708 5
E 708 709 5
E 709 710 5
E 710 711 5
E 711 712 5
E 714 715 5
E 715 716 5
E 716 717 5
E 652 718 13
E 653 720 13
E 654 721 13
E 655 722 13
E 656 723 13
E 657 724 13
E 658 725 13
E 659 727 13
E 660 728 13
E 661 729 13
E 663 730 13
E 664 731 13
E 665 732 13
E 666 733 13
E 667 734 13
E 668 735 13
E 670 736 13
E 671 738 13
E 672 739 13
E 673 740 13
E 674 741 13
E 675 742 13
E 676 743 13
E 677 744 13
E 678 745 13
E 679 746 13
E 681 747 13
E 682 749 13
E 683 750 13
E 685 751 13
E 686 752 13
E 687 753 13
E 688 754 13
E 689 755 13
E 690 756 13
E 691 757 13
E 692 758 13
E 693 759 13
E 694 761 13
E 695 763 13
E 697 765 13
E 698 766 13
E 699 767 13
E 700 769 13
E 701 770 13
E 702 771 13
E 703 772 13
E 704 773 13
E 705 774 13
E 707 775 13
E 708 776 13
E 709 777 13
E 710 778 13
E 711 779 13
E 712 780 13
E 713 781 13
E 714 782 13
E 715 783 13
E 717 785 13
E 718 719 5
E 719 720 5
E 720 721 5
E 721 722 5
E 722 723 5
E 723 724 5
E 724 725 5
E 725 726 5
E 726 727 5
E 728 729 5
E 730 731 5
E 732 733 5
E 733 734 5
E 734 735 5
E 736 737 5
E 737 738 5
E 738 739 5
E 739 740 5
E 740 741 5
E 741 742 5
E 742 743 5
E 743 744 5
E 747 748 5
E 748 749 5
E 749 750 5
E 751 752 5
E 752 753 5
E 753 754 5
E 754 755 5
E 755 756 5
E 756 757 5
E 757 758 5
E 758 759 5
E 759 760 5
E 760 761 5
E 761 762 5
E 762 763 5
E 763 764 5
E 764 765 5
E 765 766 5
E 766 767 5
E 767 768 5
E 768 769 5
E 769 770 5
E 770 771 5
E 771 772 5
E 772 773 5
E 773 774 5
E 775 776 5
E 776 777 5
E 777 778 5
E 778 779 5
E 779 780 5
E 782 783 5
E 783 784 5
E 784 785 5
E 718 786 13
E 719 787 13
E 720 788 13
E 722 789 13
E 724 791 13
E 725 792 13
E 726 793 13
E 727 794 13
E 728 796 13
E 729 797 13
E 730 798 13
E 731 799 13
E 732 801 13
E 733 802 13
E 735 803 13
E 736 804 13
E 737 805 13
E 738 806 13
E 739 807 13
E 740 808 13
E 741 809 13
E 742 810 13
E 744 812 13
E 745 814 13
E 746 816 13
E 747 817 13
E 748 818 13
E 749 819 13
E 750 820 13
E 751 821 13
E 753 823 13
E 754 824 13
E 755 825 13
E 757 826 13
E 758 827 13
E 759 828 13
E 760 829 13
E 761 830 13
E 762 831 13
E 763 832 13
E 765 833 13
E 766 834 13
E 767 835 13
E 768 836 13
E 769 837 13
E 771 838 13
E 772 839 13
E 773 840 13
E 774 841 13
E 775 842 13
E 776 843 13
E 777 844 13
E 778 845 13
E 779 846 13
E 780 847 13
E 781 849 13
E 782 851 13
E 783 852 13
E 784 853 13
E 785 854 13
E 786 787 5
E 787 788 5
E 789 790 5
E 790 791 5
E 791 792 5
E 792 793 5
E 793 794 5
E 794 795 5
E 795 796 5
E 796 797 5
E 798 799 5
E 799 800 5
E 800 801 5
E 801 802 5
E 804 805 5
E 805 806 5
E 806 807 5
E 807 808 5
E 808 809 5
E 809 810 5
E 810 811 5
E 811 812 5
E 812 813 5
E 813 814 5
E 814 815 5
E 815 816 5
E 817 818 5
E 818 819 5
E 819 820 5
E 821 822 5
E 822 823 5
E 823 824 5
E 824 825 5
E 826 827 5
E 827 828 5
E 828 829 5
E 829 830 5
E 830 831 5
E 831 832 5
E 833 834 5
E 834 835 5
E 835 836 5
E 836 837 5
E 838 839 5
E 839 840 5
E 840 841 5
E 842 843 5
E 843 844 5
E 844 845 5
E 845 846 5
E 846 847 5
E 847 848 5
E 848 849 5
E 849 850 5
E 850 851 5
E 851 852 5
E 852 853 5
E 853 854 5
E 786 855 13
E 787 856 13
E 788 857 13
E 789 858 13
E 790 859 13
E 791 860 13
E 792 861 13
E 793 862 13
E 794 863 13
E 795 864 13
E 796 865 13
E 797 866 13
E 798 868 13
E 799 869 13
E 800 870 13
E 801 871 13
E 802 872 13
E 803 873 13
E 804 875 13
E 805 876 13
E 806 877 13
E 807 878 13
E 808 879 13
E 809 880 13
E 810 881 13
E 811 882 13
E 812 883 13
E 813 884 13
E 814 885 13
E 815 886 13
E 816 887 13
E 817 889 13
E 818 890 13
E 819 891 13
E 820 892 13
E 821 894 13
E 822 895 13
E 823 896 13
E 825 898 13
E 826 899 13
E 828 901 13
E 829 902 13
E 831 903 13
E 832 904 13
E 833 905 13
E 834 906 13
E 836 908 13
E 837 909 13
E 838 910 13
E 839 911 13
E 840 912 13
E 841 913 13
E 842 915 13
E 843 916 13
E 844 917 13
E 846 919 13
E 847 920 13
E 848 921 13
E 849 922 13
E 850 923 13
E 851 924 13
E 852 925 13
E 853 926 13
E 855 856 5
E 856 857 5
E 858 859 5
E 859 860 5
E 860 861 5
E 861 862 5
E 862 863 5
E 863 864 5
E 864 865 5
E 865 866 5
E 866 867 5
E 867 868 5
E 868 869 5
E 869 870 5
E 870 871 5
E 871 872 5
E 873 874 5
E 874 875 5
E 875 876 5
E 876 877 5
E 877 878 5
E 878 879 5
E 879 880 5
E 880 881 5
E 881 882 5
E 882 883 5
E 883 884 5
E 884 885 5
E 885 886 5
E 886 887 5
E 887 888 5
E 888 889 5
E 889 890 5
E 890 891 5
E 891 892 5
E 892 893 5
E 893 894 5
E 894 895 5
E 895 896 5
E 896 897 5
E 897 898 5
E 899 900 5
E 900 901 5
E 901 902 5
E 903 904 5
E 905 906 5
E 906 907 5
E 907 908 5
E 908 909 5
E 910 911 5
E 911 912 5
E 912 913 5
E 913 914 5
E 914 915 5
E 915 916 5
E 916 917 5
E 917 918 5
E 918 919 5
E 919 920 5
E 920 921 5
E 921 922 5
E 922 923 5
E 923 924 5
E 924 925 5
E 925 926 5
E 926 927 5
E 855 928 13
E 856 929 13
E 857 930 13
E 858 932 13
E 859 933 13
E 860 934 13
E 861 935 13
E 862 936 13
E 863 937 13
E 865 939 13
E 866 940 13
E 867 941 13
E 868 942 13
E 869 943 13
E 870 944 13
E 871 945 13
E 872 946 13
E 873 948 13
E 874 949 13
E 875 950 13
E 876 951 13
E 878 953 13
E 879 954 13
E 880 955 13
E 881 956 13
E 882 957 13
E 883 958 13
E 884 959 13
E 885 960 13
E 887 962 13
E 888 963 13
E 889 964 13
E 890 965 13
E 891 966 13
E 892 967 13
E 893 968 13
E 894 969 13
E 895 970 13
E 896 971 13
E 897 972 13
E 898 973 13
E 899 975 13
E 900 976 13
E 901 977 13
E 902 978 13
E 903 979 13
E 904 980 13
E 905 982 13
E 906 983 13
E 907 984 13
E 908 985 13
E 909 986 13
E 910 988 13
E 911 989 13
E 912 990 13
E 913 991 13
E 914 992 13
E 915 993 13
E 916 994 13
E 917 995 13
E 918 996 13
E 919 997 13
E 920 998 13
E 921 999 13
E 922 1000 13
E 923 1001 13
E 924 1002 13
E 925 1003 13
E 926 1004 13
E 927 1005 13
E 928 929 5
E 929 930 5
E 930 931 5
E 931 932 5
E 932 933 5
E 933 934 5
E 934 935 5
E 935 936 5
E 936 937 5
E 937 938 5
E 938 939 5
E 939 940 5
E 940 941 5
E 941 942 5
E 942 943 5
E 943 944 5
E 944 945 5
E 945 946 5
E 946 947 5
E 947 948 5
E 948 949 5
E 949 950 5
E 950 951 5
E 951 952 5
E 952 953 5
E 953 954 5
E 954 955 5
E 955 956 5
E 956 957 5
E 957 958 5
E 958 959 5
E 959 960 5
E 960 961 5
E 961 962 5
E 962 963 5
E 963 964 5
E 964 965 5
E 965 966 5
E 966 967 5
E 967 968 5
E 968 969 5
E 969 970 5
E 970 971 5
E 971 972 5
E 972 973 5
E 973 974 5
E 974 975 5
E 975 976 5
E 976 977 5
E 977 978 5
E 979 980 5
E 980 981 5
E 981 982 5
E 982 983 5
E 983 984 5
E 984 985 5
E 985 986 5
E 986 987 5
E 987 988 5
E 988 989 5
E 989 990 5
E 990 991 5
E 991 992 5
E 992 993 5
E 993 994 5
E 994 995 5
E 995 996 5
E 996 997 5
E 997 998 5
E 998 999 5
E 999 1000 5
E 1000 1001 5
E 1001 1002 5
E 1002 1003 5
E 1003 1004 5
E 1004 1005 5
END

SECTION Terminals
Terminals 18
T 71
T 162
T 294
T 298
T 302
T 314
T 372
T 384
T 507
T 514
T 528
T 588
T 594
T 608
T 661
T 668
T 720
T 733
END

EOF
